0
0
72
38
21
133
25
13
35
17
17
35
9
137
44
21
11
39
12
0
7
22
58
14
12
26
13
42
12
28
20
0
30
34
12
0
43
26
0
0
63
28
10
17
0
59
9
42
13
11
17
14
40
87
52
33
32
9
47
9
36
96
125
67
0
114
0
146
38
12
65
44
40
128
12
126
204
19
9
44
73
9
114
44
58
42
26
55
20
9
34
105
36
126
39
121
11
43
112
37
